p edge 200 1990
e 1 24
e 1 26
e 1 45
e 1 48
e 1 60
e 1 78
e 1 85
e 1 94
e 1 98
e 1 111
e 1 141
e 1 147
e 1 153
e 1 156
e 1 157
e 1 176
e 1 178
e 1 194
e 1 195
e 2 15
e 2 21
e 2 28
e 2 32
e 2 47
e 2 63
e 2 68
e 2 71
e 2 81
e 2 85
e 2 95
e 2 108
e 2 123
e 2 129
e 2 151
e 2 153
e 2 154
e 2 161
e 2 170
e 2 178
e 2 181
e 2 199
e 3 28
e 3 30
e 3 31
e 3 42
e 3 57
e 3 60
e 3 66
e 3 71
e 3 92
e 3 93
e 3 108
e 3 116
e 3 129
e 3 154
e 3 160
e 3 165
e 3 187
e 3 200
e 4 24
e 4 28
e 4 30
e 4 45
e 4 70
e 4 73
e 4 93
e 4 94
e 4 121
e 4 134
e 4 146
e 4 148
e 4 163
e 4 172
e 4 179
e 4 180
e 4 181
e 4 186
e 4 188
e 4 198
e 4 199
e 5 11
e 5 16
e 5 23
e 5 31
e 5 42
e 5 49
e 5 51
e 5 58
e 5 70
e 5 73
e 5 75
e 5 78
e 5 91
e 5 113
e 5 134
e 5 135
e 5 174
e 5 185
e 5 188
e 5 189
e 5 195
e 6 9
e 6 12
e 6 14
e 6 28
e 6 35
e 6 49
e 6 62
e 6 64
e 6 69
e 6 94
e 6 98
e 6 108
e 6 109
e 6 121
e 6 123
e 6 124
e 6 128
e 6 133
e 6 135
e 6 140
e 6 155
e 6 160
e 6 161
e 6 166
e 6 185
e 6 195
e 6 198
e 6 199
e 7 25
e 7 31
e 7 53
e 7 54
e 7 55
e 7 79
e 7 85
e 7 92
e 7 99
e 7 103
e 7 104
e 7 187
e 7 194
e 8 33
e 8 34
e 8 41
e 8 48
e 8 54
e 8 62
e 8 67
e 8 68
e 8 79
e 8 89
e 8 97
e 8 103
e 8 109
e 8 110
e 8 134
e 8 138
e 8 149
e 8 154
e 8 155
e 8 157
e 8 174
e 8 177
e 8 181
e 8 184
e 8 187
e 8 190
e 8 200
e 9 14
e 9 17
e 9 23
e 9 62
e 9 64
e 9 67
e 9 91
e 9 107
e 9 111
e 9 127
e 9 135
e 9 148
e 9 165
e 9 168
e 9 174
e 9 175
e 9 182
e 9 192
e 9 195
e 10 12
e 10 20
e 10 21
e 10 22
e 10 55
e 10 61
e 10 67
e 10 69
e 10 112
e 10 115
e 10 145
e 10 152
e 10 178
e 10 180
e 11 15
e 11 21
e 11 59
e 11 68
e 11 81
e 11 99
e 11 116
e 11 138
e 11 144
e 11 176
e 12 16
e 12 38
e 12 40
e 12 54
e 12 55
e 12 60
e 12 61
e 12 75
e 12 118
e 12 121
e 12 122
e 12 131
e 12 141
e 12 170
e 12 193
e 13 16
e 13 20
e 13 34
e 13 37
e 13 39
e 13 40
e 13 46
e 13 54
e 13 59
e 13 60
e 13 74
e 13 80
e 13 89
e 13 92
e 13 112
e 13 114
e 13 119
e 13 136
e 13 141
e 13 148
e 13 167
e 13 191
e 14 33
e 14 43
e 14 61
e 14 65
e 14 69
e 14 101
e 14 112
e 14 115
e 14 138
e 14 140
e 14 143
e 14 151
e 14 161
e 14 167
e 14 171
e 14 173
e 14 175
e 14 181
e 14 194
e 15 26
e 15 36
e 15 60
e 15 71
e 15 73
e 15 77
e 15 81
e 15 87
e 15 98
e 15 103
e 15 104
e 15 107
e 15 115
e 15 117
e 15 127
e 15 146
e 15 160
e 15 163
e 15 187
e 15 191
e 16 38
e 16 51
e 16 61
e 16 76
e 16 78
e 16 82
e 16 83
e 16 84
e 16 89
e 16 90
e 16 91
e 16 93
e 16 106
e 16 113
e 16 115
e 16 119
e 16 123
e 16 127
e 16 131
e 16 133
e 16 147
e 16 151
e 16 156
e 16 165
e 16 180
e 17 19
e 17 36
e 17 46
e 17 47
e 17 48
e 17 74
e 17 77
e 17 78
e 17 106
e 17 113
e 17 119
e 17 123
e 17 127
e 17 134
e 17 138
e 17 151
e 17 158
e 17 166
e 18 24
e 18 44
e 18 47
e 18 101
e 18 125
e 18 137
e 18 144
e 18 174
e 18 195
e 19 20
e 19 57
e 19 58
e 19 59
e 19 68
e 19 112
e 19 136
e 19 144
e 19 166
e 19 167
e 19 178
e 19 185
e 20 29
e 20 40
e 20 52
e 20 55
e 20 87
e 20 91
e 20 119
e 20 151
e 20 153
e 20 171
e 20 174
e 20 199
e 21 30
e 21 39
e 21 43
e 21 50
e 21 72
e 21 95
e 21 104
e 21 106
e 21 157
e 21 162
e 21 171
e 21 174
e 21 178
e 22 81
e 22 87
e 22 94
e 22 107
e 22 133
e 22 140
e 22 146
e 22 155
e 22 163
e 22 165
e 22 167
e 22 182
e 22 184
e 22 187
e 22 197
e 23 24
e 23 29
e 23 49
e 23 63
e 23 72
e 23 77
e 23 92
e 23 93
e 23 95
e 23 108
e 23 119
e 23 137
e 23 143
e 23 160
e 23 169
e 23 173
e 23 176
e 23 177
e 23 186
e 24 29
e 24 32
e 24 55
e 24 56
e 24 62
e 24 67
e 24 87
e 24 90
e 24 91
e 24 100
e 24 102
e 24 116
e 24 126
e 24 129
e 24 154
e 24 183
e 24 187
e 24 195
e 25 33
e 25 37
e 25 79
e 25 105
e 25 114
e 25 118
e 25 119
e 25 121
e 25 129
e 25 133
e 25 137
e 25 152
e 25 154
e 25 156
e 25 167
e 25 181
e 26 41
e 26 48
e 26 50
e 26 65
e 26 68
e 26 83
e 26 89
e 26 102
e 26 106
e 26 110
e 26 128
e 26 129
e 26 146
e 26 156
e 26 158
e 26 162
e 26 165
e 26 169
e 26 176
e 26 178
e 26 180
e 26 182
e 26 191
e 26 200
e 27 30
e 27 33
e 27 69
e 27 80
e 27 99
e 27 101
e 27 103
e 27 107
e 27 120
e 27 126
e 27 135
e 27 145
e 27 146
e 27 152
e 27 160
e 27 164
e 27 171
e 27 174
e 27 182
e 27 194
e 28 59
e 28 64
e 28 75
e 28 82
e 28 108
e 28 117
e 28 132
e 28 138
e 28 139
e 28 160
e 28 175
e 28 177
e 28 184
e 28 189
e 29 37
e 29 39
e 29 63
e 29 74
e 29 75
e 29 104
e 29 108
e 29 111
e 29 114
e 29 117
e 29 119
e 29 135
e 29 139
e 29 149
e 29 150
e 29 159
e 29 161
e 29 183
e 29 191
e 30 32
e 30 34
e 30 63
e 30 68
e 30 76
e 30 77
e 30 109
e 30 116
e 30 124
e 30 125
e 30 126
e 30 127
e 30 141
e 30 151
e 30 153
e 30 161
e 30 183
e 30 190
e 30 197
e 30 198
e 31 33
e 31 41
e 31 44
e 31 64
e 31 80
e 31 82
e 31 93
e 31 109
e 31 118
e 31 120
e 31 127
e 31 138
e 31 144
e 31 189
e 32 42
e 32 59
e 32 104
e 32 107
e 32 122
e 32 138
e 32 139
e 32 155
e 32 174
e 32 183
e 32 185
e 32 200
e 33 34
e 33 47
e 33 51
e 33 57
e 33 60
e 33 63
e 33 81
e 33 82
e 33 87
e 33 94
e 33 96
e 33 117
e 33 119
e 33 124
e 33 126
e 33 139
e 33 141
e 33 142
e 33 162
e 33 174
e 33 177
e 33 179
e 33 182
e 33 183
e 33 196
e 33 199
e 33 200
e 34 53
e 34 58
e 34 66
e 34 75
e 34 93
e 34 94
e 34 103
e 34 116
e 34 121
e 34 122
e 34 132
e 34 141
e 34 143
e 34 145
e 34 167
e 34 172
e 34 183
e 34 194
e 34 197
e 34 200
e 35 51
e 35 72
e 35 74
e 35 76
e 35 81
e 35 92
e 35 93
e 35 113
e 35 124
e 35 135
e 35 144
e 35 149
e 35 189
e 35 190
e 36 40
e 36 43
e 36 46
e 36 59
e 36 72
e 36 73
e 36 92
e 36 93
e 36 146
e 36 172
e 36 180
e 36 190
e 36 193
e 36 195
e 36 196
e 37 38
e 37 45
e 37 46
e 37 70
e 37 71
e 37 74
e 37 76
e 37 92
e 37 97
e 37 99
e 37 101
e 37 109
e 37 125
e 37 128
e 37 130
e 37 137
e 37 142
e 37 161
e 37 168
e 37 188
e 38 40
e 38 48
e 38 54
e 38 58
e 38 63
e 38 77
e 38 80
e 38 90
e 38 103
e 38 111
e 38 114
e 38 122
e 38 124
e 38 128
e 38 131
e 38 143
e 38 144
e 38 154
e 38 157
e 38 159
e 38 170
e 38 174
e 38 180
e 38 183
e 38 185
e 38 186
e 38 189
e 38 193
e 39 65
e 39 70
e 39 81
e 39 84
e 39 86
e 39 96
e 39 100
e 39 113
e 39 124
e 39 129
e 39 149
e 39 150
e 39 159
e 39 162
e 39 171
e 39 189
e 39 190
e 39 194
e 40 46
e 40 52
e 40 67
e 40 70
e 40 82
e 40 92
e 40 96
e 40 111
e 40 115
e 40 122
e 40 145
e 40 172
e 40 190
e 40 196
e 40 197
e 40 198
e 41 43
e 41 45
e 41 49
e 41 57
e 41 63
e 41 66
e 41 71
e 41 85
e 41 92
e 41 96
e 41 106
e 41 114
e 41 117
e 41 132
e 41 141
e 41 155
e 41 162
e 41 169
e 41 179
e 41 185
e 41 191
e 42 51
e 42 53
e 42 71
e 42 79
e 42 87
e 42 97
e 42 105
e 42 116
e 42 121
e 42 130
e 42 133
e 42 136
e 42 142
e 42 147
e 42 171
e 42 192
e 43 61
e 43 78
e 43 82
e 43 97
e 43 104
e 43 112
e 43 122
e 43 124
e 43 152
e 43 155
e 43 158
e 43 160
e 43 164
e 43 170
e 43 188
e 43 193
e 43 197
e 44 62
e 44 93
e 44 114
e 44 119
e 44 129
e 44 135
e 44 149
e 44 154
e 44 157
e 44 164
e 44 167
e 44 183
e 44 187
e 44 198
e 45 56
e 45 85
e 45 98
e 45 139
e 45 151
e 45 157
e 45 166
e 45 169
e 45 171
e 45 175
e 45 181
e 45 185
e 45 190
e 45 198
e 46 53
e 46 57
e 46 60
e 46 65
e 46 68
e 46 69
e 46 73
e 46 85
e 46 91
e 46 95
e 46 129
e 46 133
e 46 148
e 46 163
e 46 177
e 46 198
e 47 66
e 47 68
e 47 71
e 47 86
e 47 93
e 47 94
e 47 98
e 47 100
e 47 108
e 47 110
e 47 140
e 47 144
e 47 148
e 47 158
e 47 161
e 47 169
e 48 56
e 48 57
e 48 59
e 48 76
e 48 89
e 48 106
e 48 135
e 48 137
e 48 142
e 48 158
e 48 163
e 48 165
e 48 174
e 48 176
e 49 69
e 49 70
e 49 71
e 49 83
e 49 95
e 49 97
e 49 106
e 49 130
e 49 131
e 49 135
e 49 188
e 50 53
e 50 64
e 50 67
e 50 92
e 50 105
e 50 114
e 50 122
e 50 133
e 50 136
e 50 170
e 50 173
e 50 174
e 50 177
e 50 179
e 50 192
e 50 197
e 51 59
e 51 73
e 51 75
e 51 80
e 51 153
e 51 158
e 51 169
e 51 170
e 52 76
e 52 77
e 52 90
e 52 94
e 52 109
e 52 120
e 52 132
e 52 137
e 52 139
e 52 142
e 52 147
e 52 159
e 52 166
e 52 171
e 52 174
e 52 176
e 52 199
e 53 72
e 53 77
e 53 113
e 53 119
e 53 132
e 53 149
e 53 158
e 53 197
e 54 55
e 54 78
e 54 90
e 54 102
e 54 112
e 54 119
e 54 129
e 54 134
e 54 146
e 54 149
e 54 154
e 54 159
e 54 162
e 54 163
e 54 184
e 54 186
e 54 192
e 55 67
e 55 71
e 55 78
e 55 82
e 55 96
e 55 97
e 55 102
e 55 103
e 55 110
e 55 128
e 55 133
e 55 146
e 55 178
e 55 189
e 55 190
e 55 196
e 56 57
e 56 64
e 56 73
e 56 76
e 56 79
e 56 95
e 56 98
e 56 99
e 56 106
e 56 117
e 56 118
e 56 120
e 56 122
e 56 130
e 56 131
e 56 146
e 56 176
e 56 177
e 56 179
e 56 182
e 56 183
e 56 192
e 56 196
e 57 58
e 57 62
e 57 66
e 57 71
e 57 87
e 57 98
e 57 105
e 57 144
e 57 156
e 57 159
e 57 164
e 57 175
e 57 193
e 58 77
e 58 86
e 58 97
e 58 102
e 58 116
e 58 120
e 58 134
e 58 155
e 58 158
e 58 167
e 58 170
e 58 174
e 58 179
e 58 186
e 58 189
e 58 191
e 59 64
e 59 80
e 59 87
e 59 92
e 59 94
e 59 100
e 59 103
e 59 142
e 59 152
e 59 155
e 59 162
e 59 172
e 59 187
e 59 193
e 60 61
e 60 77
e 60 92
e 60 95
e 60 98
e 60 108
e 60 127
e 60 138
e 60 144
e 60 165
e 60 166
e 60 171
e 60 173
e 60 177
e 60 185
e 60 192
e 60 193
e 60 198
e 61 73
e 61 77
e 61 83
e 61 86
e 61 91
e 61 92
e 61 93
e 61 98
e 61 102
e 61 114
e 61 133
e 61 134
e 61 149
e 61 153
e 61 180
e 61 183
e 61 185
e 61 186
e 61 187
e 62 94
e 62 97
e 62 100
e 62 106
e 62 143
e 62 144
e 62 149
e 62 171
e 62 178
e 62 181
e 62 184
e 62 185
e 62 190
e 62 192
e 62 195
e 63 83
e 63 87
e 63 88
e 63 92
e 63 108
e 63 145
e 63 146
e 63 171
e 63 172
e 63 178
e 63 188
e 63 197
e 63 198
e 64 70
e 64 71
e 64 83
e 64 86
e 64 88
e 64 89
e 64 93
e 64 94
e 64 110
e 64 114
e 64 160
e 64 165
e 64 168
e 64 188
e 64 189
e 65 74
e 65 78
e 65 113
e 65 126
e 65 135
e 65 164
e 65 169
e 65 175
e 65 194
e 66 67
e 66 73
e 66 84
e 66 90
e 66 94
e 66 106
e 66 108
e 66 109
e 66 111
e 66 171
e 66 176
e 66 195
e 66 197
e 66 198
e 67 69
e 67 81
e 67 83
e 67 85
e 67 93
e 67 107
e 67 117
e 67 125
e 67 128
e 67 136
e 67 138
e 67 175
e 67 177
e 67 182
e 67 186
e 67 191
e 68 77
e 68 78
e 68 84
e 68 91
e 68 106
e 68 122
e 68 130
e 68 152
e 68 159
e 68 160
e 68 187
e 69 73
e 69 101
e 69 104
e 69 121
e 69 125
e 69 135
e 69 141
e 69 157
e 69 173
e 69 174
e 69 180
e 70 73
e 70 74
e 70 82
e 70 87
e 70 93
e 70 97
e 70 107
e 70 124
e 70 140
e 70 143
e 70 145
e 70 157
e 70 160
e 70 172
e 70 184
e 70 190
e 70 192
e 71 79
e 71 81
e 71 88
e 71 97
e 71 100
e 71 114
e 71 156
e 71 164
e 71 173
e 71 183
e 71 188
e 71 189
e 71 195
e 71 197
e 71 200
e 72 85
e 72 98
e 72 100
e 72 101
e 72 128
e 72 151
e 72 153
e 72 166
e 73 75
e 73 82
e 73 94
e 73 95
e 73 100
e 73 107
e 73 109
e 73 128
e 73 130
e 73 131
e 73 159
e 73 162
e 73 166
e 73 170
e 73 172
e 73 177
e 73 193
e 73 199
e 74 75
e 74 87
e 74 111
e 74 122
e 74 136
e 74 140
e 74 149
e 74 157
e 74 164
e 74 167
e 74 173
e 74 181
e 74 188
e 74 190
e 75 98
e 75 102
e 75 103
e 75 121
e 75 136
e 75 142
e 75 144
e 75 152
e 75 153
e 75 155
e 75 157
e 75 171
e 75 177
e 75 181
e 75 182
e 75 200
e 76 77
e 76 90
e 76 104
e 76 108
e 76 109
e 76 124
e 76 131
e 76 137
e 76 138
e 76 140
e 76 141
e 76 149
e 76 156
e 76 157
e 76 162
e 76 165
e 76 176
e 77 85
e 77 96
e 77 100
e 77 136
e 77 141
e 77 149
e 77 164
e 77 186
e 78 82
e 78 85
e 78 94
e 78 114
e 78 125
e 78 126
e 78 132
e 78 166
e 78 185
e 78 186
e 79 84
e 79 104
e 79 126
e 79 147
e 79 152
e 79 155
e 79 157
e 79 173
e 79 182
e 79 189
e 80 82
e 80 88
e 80 117
e 80 119
e 80 122
e 80 128
e 80 131
e 80 139
e 80 165
e 80 182
e 81 90
e 81 110
e 81 116
e 81 128
e 81 152
e 81 154
e 81 155
e 81 157
e 81 159
e 81 160
e 81 185
e 81 189
e 82 84
e 82 107
e 82 112
e 82 113
e 82 137
e 82 140
e 82 143
e 82 152
e 82 155
e 82 161
e 82 176
e 82 191
e 83 93
e 83 105
e 83 131
e 83 139
e 83 140
e 83 157
e 83 173
e 83 183
e 83 196
e 84 91
e 84 104
e 84 105
e 84 115
e 84 119
e 84 120
e 84 122
e 84 124
e 84 156
e 84 182
e 85 99
e 85 125
e 85 148
e 85 152
e 85 155
e 85 168
e 85 182
e 85 185
e 85 189
e 85 191
e 85 192
e 85 195
e 86 92
e 86 93
e 86 94
e 86 98
e 86 103
e 86 105
e 86 112
e 86 114
e 86 116
e 86 124
e 86 149
e 86 156
e 86 158
e 86 165
e 86 167
e 86 172
e 86 175
e 86 178
e 86 190
e 87 91
e 87 95
e 87 98
e 87 111
e 87 113
e 87 140
e 87 151
e 87 164
e 87 180
e 87 190
e 88 108
e 88 115
e 88 117
e 88 124
e 88 126
e 88 128
e 88 137
e 88 140
e 88 146
e 88 162
e 88 171
e 88 174
e 88 181
e 88 191
e 88 199
e 89 95
e 89 104
e 89 107
e 89 124
e 89 126
e 89 153
e 90 101
e 90 104
e 90 108
e 90 109
e 90 128
e 90 131
e 90 141
e 90 144
e 90 171
e 90 196
e 91 101
e 91 136
e 91 151
e 91 155
e 91 165
e 91 166
e 91 171
e 91 172
e 91 182
e 91 194
e 92 110
e 92 111
e 92 113
e 92 132
e 92 143
e 92 177
e 92 179
e 92 200
e 93 100
e 93 101
e 93 128
e 93 133
e 93 139
e 93 151
e 93 166
e 93 187
e 93 189
e 93 197
e 94 102
e 94 119
e 94 121
e 94 164
e 94 170
e 94 185
e 94 188
e 94 189
e 94 199
e 95 110
e 95 127
e 95 131
e 95 136
e 95 147
e 95 152
e 95 158
e 95 176
e 95 181
e 95 191
e 95 194
e 96 98
e 96 118
e 96 127
e 96 139
e 96 159
e 96 167
e 96 178
e 96 183
e 96 190
e 97 107
e 97 109
e 97 111
e 97 112
e 97 114
e 97 121
e 97 141
e 97 163
e 97 169
e 97 194
e 97 200
e 98 99
e 98 101
e 98 114
e 98 115
e 98 116
e 98 118
e 98 126
e 98 133
e 98 146
e 98 164
e 98 170
e 98 196
e 99 102
e 99 108
e 99 111
e 99 124
e 99 126
e 99 153
e 99 156
e 99 173
e 100 109
e 100 110
e 100 117
e 100 125
e 100 126
e 100 138
e 100 152
e 100 154
e 100 158
e 100 181
e 100 182
e 100 193
e 100 200
e 101 104
e 101 129
e 101 151
e 101 159
e 101 164
e 101 184
e 101 193
e 102 103
e 102 107
e 102 135
e 102 140
e 102 143
e 102 169
e 102 180
e 102 186
e 102 192
e 102 194
e 102 196
e 103 108
e 103 112
e 103 120
e 103 128
e 103 132
e 103 135
e 103 152
e 103 165
e 103 170
e 103 173
e 103 188
e 104 115
e 104 120
e 104 123
e 104 137
e 104 143
e 104 152
e 104 153
e 104 168
e 104 171
e 104 188
e 104 194
e 104 197
e 105 118
e 105 120
e 105 125
e 105 127
e 105 130
e 105 142
e 105 157
e 105 187
e 105 190
e 105 199
e 106 114
e 106 132
e 106 141
e 106 155
e 106 175
e 106 194
e 107 112
e 107 118
e 107 122
e 107 136
e 107 157
e 107 174
e 107 176
e 107 193
e 107 195
e 107 196
e 107 198
e 108 117
e 108 138
e 108 147
e 108 164
e 108 175
e 108 180
e 108 185
e 109 122
e 109 123
e 109 146
e 109 151
e 109 152
e 109 160
e 109 179
e 109 187
e 109 194
e 110 111
e 110 128
e 110 130
e 110 133
e 110 134
e 110 162
e 110 169
e 110 172
e 110 179
e 110 182
e 111 113
e 111 118
e 111 138
e 111 146
e 111 151
e 111 157
e 111 167
e 111 198
e 112 120
e 112 122
e 112 129
e 112 153
e 112 169
e 113 119
e 113 122
e 113 137
e 113 141
e 113 147
e 113 153
e 113 158
e 113 170
e 113 189
e 113 190
e 113 191
e 114 120
e 114 126
e 114 137
e 114 142
e 114 151
e 114 155
e 114 156
e 114 183
e 114 189
e 114 194
e 114 195
e 115 117
e 115 119
e 115 122
e 115 137
e 115 145
e 115 147
e 115 163
e 115 167
e 115 182
e 115 198
e 116 117
e 116 122
e 116 138
e 116 140
e 116 142
e 116 146
e 116 149
e 116 157
e 116 180
e 117 122
e 117 144
e 117 148
e 117 150
e 117 160
e 117 163
e 117 165
e 117 175
e 117 182
e 117 186
e 117 196
e 117 198
e 118 119
e 118 123
e 118 147
e 118 150
e 118 162
e 118 166
e 118 174
e 118 192
e 119 124
e 119 137
e 119 139
e 119 141
e 119 143
e 119 167
e 119 171
e 119 172
e 119 175
e 119 192
e 119 199
e 120 122
e 120 138
e 120 155
e 120 158
e 120 196
e 121 124
e 121 129
e 121 162
e 121 165
e 121 171
e 121 175
e 121 195
e 121 196
e 122 128
e 122 133
e 122 162
e 122 175
e 122 187
e 122 195
e 123 125
e 123 136
e 123 159
e 123 169
e 123 173
e 123 190
e 123 200
e 124 128
e 124 132
e 124 139
e 124 149
e 124 162
e 124 163
e 124 169
e 124 170
e 124 200
e 125 132
e 125 133
e 125 157
e 125 165
e 125 187
e 125 197
e 125 200
e 126 148
e 126 151
e 126 152
e 126 166
e 126 186
e 126 195
e 127 136
e 127 180
e 128 144
e 128 153
e 128 156
e 128 164
e 128 168
e 128 169
e 128 172
e 128 183
e 128 185
e 128 187
e 128 193
e 129 148
e 129 158
e 129 167
e 129 169
e 129 171
e 129 188
e 129 199
e 130 165
e 130 171
e 130 176
e 130 179
e 130 184
e 131 133
e 131 135
e 131 138
e 131 147
e 131 162
e 131 167
e 131 175
e 132 158
e 132 167
e 132 183
e 133 151
e 133 154
e 133 161
e 133 165
e 134 157
e 134 167
e 134 168
e 134 171
e 134 184
e 134 188
e 135 141
e 135 142
e 135 143
e 135 145
e 135 154
e 135 160
e 135 175
e 135 177
e 135 192
e 135 195
e 135 198
e 136 148
e 136 164
e 136 189
e 136 200
e 137 155
e 137 180
e 137 185
e 137 194
e 138 144
e 138 155
e 138 160
e 138 163
e 138 178
e 138 183
e 138 184
e 138 200
e 139 148
e 139 150
e 139 158
e 139 182
e 140 144
e 140 153
e 140 160
e 140 180
e 140 184
e 140 199
e 141 156
e 141 177
e 141 183
e 141 186
e 141 192
e 142 143
e 142 153
e 142 160
e 142 161
e 142 168
e 142 171
e 142 180
e 142 198
e 143 153
e 143 155
e 143 163
e 143 168
e 143 170
e 143 193
e 143 197
e 144 154
e 144 158
e 144 160
e 144 163
e 144 164
e 144 199
e 145 160
e 145 180
e 146 164
e 146 167
e 146 186
e 146 187
e 147 152
e 147 159
e 147 172
e 147 175
e 147 179
e 147 190
e 147 193
e 147 196
e 147 197
e 148 156
e 148 165
e 148 167
e 148 184
e 148 190
e 148 193
e 149 151
e 149 158
e 149 161
e 149 170
e 149 174
e 149 177
e 149 192
e 149 197
e 150 155
e 150 160
e 150 180
e 150 187
e 150 193
e 151 159
e 151 172
e 151 191
e 151 194
e 151 195
e 152 155
e 152 186
e 152 199
e 153 159
e 153 162
e 153 176
e 153 181
e 153 193
e 153 198
e 154 167
e 154 185
e 154 187
e 155 165
e 155 170
e 155 197
e 156 179
e 156 180
e 156 191
e 156 198
e 157 193
e 157 197
e 158 172
e 158 175
e 158 182
e 159 179
e 160 164
e 160 167
e 160 169
e 160 176
e 160 179
e 160 183
e 160 198
e 161 163
e 161 165
e 161 170
e 161 175
e 161 179
e 161 182
e 161 184
e 161 190
e 161 197
e 162 175
e 162 182
e 162 183
e 163 186
e 163 192
e 163 198
e 164 166
e 164 178
e 164 190
e 164 196
e 165 168
e 166 199
e 168 188
e 168 199
e 169 197
e 169 200
e 170 181
e 170 196
e 171 185
e 171 192
e 171 198
e 172 186
e 172 192
e 172 193
e 173 185
e 173 193
e 174 185
e 175 191
e 176 180
e 176 188
e 177 192
e 177 198
e 178 179
e 178 181
e 178 184
e 178 194
e 179 188
e 179 189
e 179 191
e 179 192
e 179 197
e 179 200
e 180 185
e 180 192
e 180 195
e 180 198
e 181 184
e 182 194
e 182 197
e 183 184
e 183 186
e 183 190
e 183 196
e 183 197
e 184 185
e 186 188
e 187 198
e 187 200
e 188 199
e 188 200
e 190 192
e 191 196
